18
51
12
28
43
17
10
10
2
6
30
39
21
47
44
25
36
19
55
40
52
28
35
52
44
32
22
37
20
46
16
7
33
8
6
42
14
25
47
19
38
48
29
24
42
9
54
26
9
10
50
0
30
39
42
11
3
26
12
54
28
45
43
48
13
3
30
2
4
23
49
53
23
1
46
31
48
4
13
55
8
7
5
53
34
38
31
56
5
49
14
33
51
32
0
52
37
29
40
21
1
20
43
22
6
18
53
15
16
27
34
11
36
37
24
27
45
24
41
20
17
15
35
41
50
